NAME: concorde14
TYPE: TSP
COMMENT: Generated by CCutil_writetsplib
COMMENT: Write called for by Concorde GUI
DIMENSION: 14
EDGE_WEIGHT_TYPE: EUC_2D
NODE_COORD_SECTION
1 8.119658 90.702479
2 4.843305 55.991736
3 6.054131 42.355372
4 26.495726 6.818182
5 32.264957 42.148760
6 41.452991 25.619835
7 55.199430 22.727273
8 60.398860 6.818182
9 71.652422 20.454545
10 65.170940 58.057851
11 53.490028 77.685950
12 40.242165 71.900826
13 26.780627 91.322314
14 16.096866 74.173554
